c uprop, v00.0, 
c reading from data/prog970.c.cnf
c done reading: 0.003729
p cnf 161 760
-66 -87 0
-66 -83 0
66 83 87 0
-60 83 87 0
-60 -83 -87 0
60 83 -87 0
60 -83 87 0
66 -78 0
-76 -78 0
-66 76 78 0
-66 -71 76 0
66 -71 -76 0
66 71 76 0
-66 71 -76 0
-67 78 0
-64 -67 0
64 67 -78 0
-62 64 -78 0
-62 -64 78 0
62 64 78 0
62 -64 -78 0
-61 67 0
-58 -61 0
58 61 -67 0
58 -67 -85 0
-58 67 -85 0
58 67 85 0
-58 -67 85 0
61 -89 0
-80 -89 0
-61 80 89 0
-61 80 -90 0
61 -80 -90 0
61 80 90 0
-61 -80 90 0
89 -91 0
-73 -91 0
73 -89 91 0
73 -89 -92 0
-73 89 -92 0
73 89 92 0
-73 -89 92 0
91 -93 0
-69 -93 0
69 -91 93 0
69 -91 -94 0
-69 91 -94 0
69 91 94 0
-69 -91 94 0
83 -95 0
87 -95 0
-83 -87 95 0
-83 -87 -96 0
83 87 -96 0
-83 87 96 0
83 -87 96 0
-76 -83 97 0
-76 -95 97 0
-83 -95 97 0
76 83 -97 0
76 95 -97 0
83 95 -97 0
76 -97 -98 0
83 -97 -98 0
95 -97 -98 0
-76 97 98 0
-83 97 98 0
-95 97 98 0
-76 -83 -95 98 0
76 83 95 -98 0
-64 -76 99 0
-64 -97 99 0
-76 -97 99 0
64 76 -99 0
64 97 -99 0
76 97 -99 0
64 -99 -100 0
76 -99 -100 0
97 -99 -100 0
-64 99 100 0
-76 99 100 0
-97 99 100 0
-64 -76 -97 100 0
64 76 97 -100 0
-58 -64 101 0
-58 -99 101 0
-64 -99 101 0
58 64 -101 0
58 99 -101 0
64 99 -101 0
-56 58 -101 0
-56 64 -101 0
-56 99 -101 0
56 -58 101 0
56 -64 101 0
56 -99 101 0
56 -58 -64 -99 0
-56 58 64 99 0
55 -58 -80 0
55 -80 -101 0
55 -58 -101 0
-55 58 80 0
-55 80 101 0
-55 58 101 0
-54 -55 80 0
-54 -55 58 0
-54 -55 101 0
54 55 -80 0
54 55 -58 0
54 55 -101 0
54 -58 -80 -101 0
-54 58 80 101 0
53 -73 -80 0
53 -55 -73 0
53 -55 -80 0
-53 73 80 0
-53 55 73 0
-53 55 80 0
-52 -53 73 0
-52 -53 80 0
-52 -53 55 0
52 53 -73 0
52 53 -80 0
52 53 -55 0
52 -55 -73 -80 0
-52 55 73 80 0
51 -69 -73 0
51 -53 -69 0
51 -53 -73 0
-51 69 73 0
-51 53 69 0
-51 53 73 0
-51 69 -86 0
-51 73 -86 0
-51 53 -86 0
51 -69 86 0
51 -73 86 0
51 -53 86 0
-53 -69 -73 86 0
53 69 73 -86 0
69 -82 0
51 -82 0
-51 -69 82 0
-51 -69 -75 0
51 69 -75 0
51 -69 75 0
-51 69 75 0
-63 98 0
-63 87 0
63 -87 -98 0
-57 -87 -98 0
-57 87 98 0
57 87 -98 0
57 -87 98 0
79 -83 -100 0
-63 79 -100 0
-63 79 -83 0
-79 83 100 0
63 -79 100 0
63 -79 83 0
-72 -79 100 0
-72 -79 83 0
63 -72 -79 0
72 79 -100 0
72 79 -83 0
-63 72 79 0
-63 72 -83 -100 0
63 -72 83 100 0
-56 68 -76 0
-56 68 -79 0
68 -76 -79 0
56 -68 76 0
56 -68 79 0
-68 76 79 0
-50 56 -68 0
-50 -68 76 0
-50 -68 79 0
50 -56 68 0
50 68 -76 0
50 68 -79 0
50 -56 -76 -79 0
-50 56 76 79 0
49 -54 -64 0
49 -54 -68 0
49 -64 -68 0
-49 54 64 0
-49 54 68 0
-49 64 68 0
-48 -49 54 0
-48 -49 64 0
-48 -49 68 0
48 49 -54 0
48 49 -64 0
48 49 -68 0
48 -54 -64 -68 0
-48 54 64 68 0
47 -52 -58 0
47 -49 -52 0
47 -49 -58 0
-47 52 58 0
-47 49 52 0
-47 49 58 0
-46 -47 52 0
-46 -47 58 0
-46 -47 49 0
46 47 -52 0
46 47 -58 0
46 47 -49 0
46 -49 -52 -58 0
-46 49 52 58 0
45 -80 -86 0
45 -47 -86 0
45 -47 -80 0
-45 80 86 0
-45 47 86 0
-45 47 80 0
-44 -45 86 0
-44 -45 80 0
-44 -45 47 0
44 45 -86 0
44 45 -80 0
44 45 -47 0
44 -47 -80 -86 0
-44 47 80 86 0
43 -73 -75 0
43 -45 -75 0
43 -45 -73 0
-43 73 75 0
-43 45 75 0
-43 45 73 0
-42 -43 75 0
-42 -43 73 0
-42 -43 45 0
42 43 -75 0
42 43 -73 0
42 43 -45 0
42 -45 -73 -75 0
-42 45 73 75 0
41 -69 -82 0
41 -43 -82 0
41 -43 -69 0
-41 69 82 0
-41 43 82 0
-41 43 69 0
-40 -41 82 0
-40 -41 69 0
-40 -41 43 0
40 41 -82 0
40 41 -69 0
40 41 -43 0
40 -43 -69 -82 0
-40 43 69 82 0
-39 -87 0
-39 -96 0
39 87 96 0
-38 87 96 0
-38 -87 -96 0
38 -87 96 0
38 87 -96 0
-37 39 0
-37 -57 0
37 -39 57 0
-36 -39 57 0
-36 39 -57 0
36 39 57 0
36 -39 -57 0
-35 37 0
-35 -72 0
35 -37 72 0
-37 72 -102 0
37 -72 -102 0
37 72 102 0
-37 -72 102 0
35 -103 0
-50 -103 0
-35 50 103 0
-35 50 -104 0
35 -50 -104 0
35 50 104 0
-35 -50 104 0
103 -105 0
-48 -105 0
48 -103 105 0
48 -103 -106 0
-48 103 -106 0
48 103 106 0
-48 -103 106 0
105 -107 0
-46 -107 0
46 -105 107 0
46 -105 -108 0
-46 105 -108 0
46 105 108 0
-46 -105 108 0
107 -109 0
-44 -109 0
44 -107 109 0
44 -107 -110 0
-44 107 -110 0
44 107 110 0
-44 -107 110 0
109 -111 0
-42 -111 0
42 -109 111 0
42 -109 -112 0
-42 109 -112 0
42 109 112 0
-42 -109 112 0
111 -113 0
-40 -113 0
40 -111 113 0
40 -111 -114 0
-40 111 -114 0
40 111 114 0
-40 -111 114 0
113 -115 0
-41 -115 0
41 -113 115 0
41 -113 -116 0
-41 113 -116 0
41 113 116 0
-41 -113 116 0
-117 -119 0
117 119 0
-120 -122 0
120 122 0
-123 -125 0
123 125 0
-126 -128 0
126 128 0
-129 -131 0
129 131 0
-132 -134 0
132 134 0
-135 -137 0
135 137 0
117 -138 0
-117 138 0
-117 -139 0
117 139 0
-117 -120 140 0
-120 -138 140 0
-117 -138 140 0
117 120 -140 0
120 138 -140 0
117 138 -140 0
120 -140 -141 0
117 -140 -141 0
138 -140 -141 0
-120 140 141 0
-117 140 141 0
-138 140 141 0
-117 -120 -138 141 0
117 120 138 -141 0
-120 -123 142 0
-123 -140 142 0
-120 -140 142 0
120 123 -142 0
123 140 -142 0
120 140 -142 0
123 -142 -143 0
120 -142 -143 0
140 -142 -143 0
-123 142 143 0
-120 142 143 0
-140 142 143 0
-120 -123 -140 143 0
120 123 140 -143 0
-123 -126 144 0
-126 -142 144 0
-123 -142 144 0
123 126 -144 0
126 142 -144 0
123 142 -144 0
126 -144 -145 0
123 -144 -145 0
142 -144 -145 0
-126 144 145 0
-123 144 145 0
-142 144 145 0
-123 -126 -142 145 0
123 126 142 -145 0
-126 -129 146 0
-129 -144 146 0
-126 -144 146 0
126 129 -146 0
129 144 -146 0
126 144 -146 0
129 -146 -147 0
126 -146 -147 0
144 -146 -147 0
-129 146 147 0
-126 146 147 0
-144 146 147 0
-126 -129 -144 147 0
126 129 144 -147 0
-129 -132 148 0
-132 -146 148 0
-129 -146 148 0
129 132 -148 0
132 146 -148 0
129 146 -148 0
132 -148 -149 0
129 -148 -149 0
146 -148 -149 0
-132 148 149 0
-129 148 149 0
-146 148 149 0
-129 -132 -146 149 0
129 132 146 -149 0
-132 -135 150 0
-135 -148 150 0
-132 -148 150 0
132 135 -150 0
135 148 -150 0
132 148 -150 0
135 -150 -151 0
132 -150 -151 0
148 -150 -151 0
-135 150 151 0
-132 150 151 0
-148 150 151 0
-132 -135 -148 151 0
132 135 148 -151 0
135 -152 0
150 -152 0
-135 -150 152 0
-88 -135 -150 0
-88 135 150 0
88 -135 150 0
88 135 -150 0
-84 145 0
84 -145 0
-77 -145 0
77 145 0
65 -117 -147 0
65 -84 -147 0
65 -84 -117 0
-65 117 147 0
-65 84 147 0
-65 84 117 0
-59 -65 147 0
-59 -65 117 0
-59 -65 84 0
59 65 -147 0
59 65 -117 0
59 65 -84 0
59 -84 -117 -147 0
-59 84 117 147 0
81 -120 -149 0
-65 81 -149 0
-65 81 -120 0
-81 120 149 0
65 -81 149 0
65 -81 120 0
-74 -81 149 0
-74 -81 120 0
65 -74 -81 0
74 81 -149 0
74 81 -120 0
-65 74 81 0
-65 74 -120 -149 0
65 -74 120 149 0
70 -123 -151 0
70 -81 -151 0
70 -81 -123 0
-70 123 151 0
-70 81 151 0
-70 81 123 0
-70 151 -153 0
-70 123 -153 0
-70 81 -153 0
70 -151 153 0
70 -123 153 0
70 -81 153 0
-81 -123 -151 153 0
81 123 151 -153 0
-88 118 -126 0
-70 -88 118 0
-70 118 -126 0
88 -118 126 0
70 88 -118 0
70 -118 126 0
88 -118 -121 0
-118 -121 126 0
70 -118 -121 0
-88 118 121 0
118 121 -126 0
-70 118 121 0
-70 -88 121 -126 0
70 88 -121 126 0
124 -129 -152 0
-118 124 -152 0
-118 124 -129 0
-124 129 152 0
118 -124 152 0
118 -124 129 0
-124 -127 152 0
-124 -127 129 0
118 -124 -127 0
124 127 -152 0
124 127 -129 0
-118 124 127 0
-118 127 -129 -152 0
118 -127 129 152 0
-130 132 0
124 -130 0
-124 130 -132 0
-124 -132 -133 0
124 132 -133 0
124 -132 133 0
-124 132 133 0
135 -136 0
130 -136 0
-130 -135 136 0
-130 -135 -154 0
130 135 -154 0
130 -135 154 0
-130 135 154 0
59 -155 0
-59 155 0
-59 -156 0
59 156 0
-74 -117 157 0
-74 -155 157 0
-117 -155 157 0
74 117 -157 0
74 155 -157 0
117 155 -157 0
74 -157 -158 0
117 -157 -158 0
155 -157 -158 0
-74 157 158 0
-117 157 158 0
-155 157 158 0
-74 -117 -155 158 0
74 117 155 -158 0
-120 -153 159 0
-153 -157 159 0
-120 -157 159 0
120 153 -159 0
153 157 -159 0
120 157 -159 0
153 -159 -160 0
120 -159 -160 0
157 -159 -160 0
-153 159 160 0
-120 159 160 0
-157 159 160 0
-120 -153 -157 160 0
120 153 157 -160 0
-121 -123 161 0
-121 -159 161 0
-123 -159 161 0
121 123 -161 0
121 159 -161 0
123 159 -161 0
-34 121 -161 0
-34 123 -161 0
-34 159 -161 0
34 -121 161 0
34 -123 161 0
34 -159 161 0
34 -121 -123 -159 0
-34 121 123 159 0
33 -126 -127 0
33 -127 -161 0
33 -126 -161 0
-33 126 127 0
-33 127 161 0
-33 126 161 0
-32 -33 127 0
-32 -33 126 0
-32 -33 161 0
32 33 -127 0
32 33 -126 0
32 33 -161 0
32 -126 -127 -161 0
-32 126 127 161 0
31 -129 -133 0
31 -33 -133 0
31 -33 -129 0
-31 129 133 0
-31 33 133 0
-31 33 129 0
-30 -31 133 0
-30 -31 129 0
-30 -31 33 0
30 31 -133 0
30 31 -129 0
30 31 -33 0
30 -33 -129 -133 0
-30 33 129 133 0
29 -132 -154 0
29 -31 -154 0
29 -31 -132 0
-29 132 154 0
-29 31 154 0
-29 31 132 0
-28 -29 154 0
-28 -29 132 0
-28 -29 31 0
28 29 -154 0
28 29 -132 0
28 29 -31 0
28 -31 -132 -154 0
-28 31 132 154 0
27 -135 -136 0
27 -29 -136 0
27 -29 -135 0
-27 135 136 0
-27 29 136 0
-27 29 135 0
-26 -27 136 0
-26 -27 135 0
-26 -27 29 0
26 27 -136 0
26 27 -135 0
26 27 -29 0
26 -29 -135 -136 0
-26 29 135 136 0
-25 -139 0
25 139 0
-24 -141 0
24 141 0
-23 -143 0
23 143 0
-22 -77 0
22 77 0
-21 -156 0
21 156 0
-20 -158 0
20 158 0
-19 -160 0
19 160 0
-18 -34 0
18 34 0
-17 -32 0
17 32 0
-16 -30 0
16 30 0
-15 -28 0
15 28 0
-14 -26 0
14 26 0
-13 -27 0
13 27 0
-12 87 0
-12 139 0
12 -87 -139 0
-87 139 0
87 -139 0
11 -96 -141 0
11 -12 -96 0
11 -12 -141 0
-11 96 141 0
-11 12 96 0
-11 12 141 0
11 -96 0
11 -141 0
11 -12 0
-12 -96 -141 0
10 -57 -143 0
10 -11 -57 0
10 -11 -143 0
-10 57 143 0
-10 11 57 0
-10 11 143 0
10 -57 0
10 -143 0
10 -11 0
-11 -57 -143 0
9 -72 -77 0
9 -10 -72 0
9 -10 -77 0
-9 72 77 0
-9 10 72 0
-9 10 77 0
-9 72 0
-9 77 0
-9 10 0
10 72 77 0
8 -50 -156 0
8 -9 -50 0
8 -9 -156 0
-8 50 156 0
-8 9 50 0
-8 9 156 0
-8 50 0
-8 156 0
-8 9 0
9 50 156 0
7 -48 -158 0
7 -8 -48 0
7 -8 -158 0
-7 48 158 0
-7 8 48 0
-7 8 158 0
7 -48 0
7 -158 0
7 -8 0
-8 -48 -158 0
6 -46 -160 0
6 -7 -46 0
6 -7 -160 0
-6 46 160 0
-6 7 46 0
-6 7 160 0
6 -46 0
6 -160 0
6 -7 0
-7 -46 -160 0
5 -34 -44 0
5 -6 -44 0
5 -6 -34 0
-5 34 44 0
-5 6 44 0
-5 6 34 0
5 -44 0
5 -34 0
5 -6 0
-6 -34 -44 0
4 -32 -42 0
4 -5 -42 0
4 -5 -32 0
-4 32 42 0
-4 5 42 0
-4 5 32 0
4 -42 0
4 -32 0
4 -5 0
-5 -32 -42 0
3 -30 -40 0
3 -4 -40 0
3 -4 -30 0
-3 30 40 0
-3 4 40 0
-3 4 30 0
3 -40 0
3 -30 0
3 -4 0
-4 -30 -40 0
2 -28 -41 0
2 -3 -41 0
2 -3 -28 0
-2 28 41 0
-2 3 41 0
-2 3 28 0
2 -41 0
2 -28 0
2 -3 0
-3 -28 -41 0
-1 26 0
-1 2 0
1 -2 -26 0
2 -26 0
-2 26 0
-1 -27 0
1 -27 0
-1 27 0
